
Gurobi 11.0.3 (win64) logging started Thu Sep 26 11:38:49 2024

Set parameter LogFile to value "C:\Users\ealvarezq\Desktop\E.Representative_days_based_on_Line_Benefits_OptModel\IEEE118_mod1_ByStages_nc170/openStarNet_IEEE118_mod1_ByStages_nc170.log"
Set parameter Method to value 2
Set parameter MIPFocus to value 1
Set parameter Presolve to value 2
Set parameter RINS to value 100
Set parameter MIPGap to value 0.01
Set parameter Threads to value 24
Set parameter TimeLimit to value 259200
Set parameter IterationLimit to value 760000000
Gurobi Optimizer version 11.0.3 build v11.0.3rc0 (win64 - Windows Server 2019.0 (17763.2))

CPU model: AMD Ryzen Threadripper PRO 3955WX 16-Cores, instruction set [SSE2|AVX|AVX2]
Thread count: 16 physical cores, 32 logical processors, using up to 24 threads

Optimize a model with 241573 rows, 178303 columns and 621832 nonzeros
Model fingerprint: 0xc75d0c2b
Variable types: 178269 continuous, 34 integer (34 binary)
Coefficient statistics:
  Matrix range     [3e-04, 9e+03]
  Objective range  [1e+00, 1e+00]
  Bounds range     [1e-04, 3e+00]
  RHS range        [2e-04, 3e+00]
Presolve removed 163266 rows and 81900 columns
Presolve time: 1.98s
Presolved: 78307 rows, 96403 columns, 286271 nonzeros
Variable types: 96369 continuous, 34 integer (34 binary)
Root relaxation presolved: 78307 rows, 96403 columns, 286271 nonzeros

Root barrier log...

Ordering time: 0.06s

Barrier statistics:
 Dense cols : 34
 AA' NZ     : 3.543e+05
 Factor NZ  : 1.401e+06 (roughly 80 MB of memory)
 Factor Ops : 3.086e+07 (less than 1 second per iteration)
 Threads    : 23

                  Objective                Residual
Iter       Primal          Dual         Primal    Dual     Compl     Time
   0   8.83838970e+06 -3.13142833e+09  1.55e+01 3.00e+03  5.96e+04     3s
   1   2.12662109e+06 -1.20895515e+09  3.45e+00 1.03e-07  1.24e+04     3s
   2   5.54683627e+05 -3.14267355e+08  6.25e-01 8.38e-08  2.13e+03     4s
   3   2.84368435e+05 -8.88451020e+07  1.02e-01 1.68e-08  4.47e+02     4s
   4   2.04531576e+05 -1.33361911e+07  1.07e-02 2.41e-09  6.01e+01     4s
   5   1.64822720e+05 -5.45950145e+06  5.69e-03 9.21e-10  2.47e+01     4s
   6   1.03573635e+05 -4.18981845e+06  2.35e-03 6.96e-10  1.87e+01     4s
   7   7.31756043e+04 -1.36644008e+06  1.25e-03 2.16e-10  6.25e+00     4s
   8   3.18819691e+04 -3.23781984e+05  2.04e-04 4.34e-11  1.54e+00     4s
   9   2.15925915e+04 -2.19895355e+05  1.06e-04 2.98e-11  1.04e+00     4s
  10   1.19203082e+04 -7.09580096e+04  3.76e-05 1.04e-11  3.58e-01     4s
  11   7.90035527e+03 -4.97211115e+04  2.08e-05 1.22e-11  2.49e-01     4s
  12   5.91946000e+03 -2.06958326e+04  1.44e-05 2.85e-12  1.15e-01     4s
  13   4.20312668e+03 -1.70012049e+04  8.78e-06 6.43e-12  9.17e-02     4s
  14   3.49164121e+03 -4.61372260e+03  6.49e-06 4.23e-12  3.51e-02     4s
  15   2.28118280e+03 -1.26525254e+03  3.02e-06 4.40e-12  1.53e-02     4s
  16   1.76206259e+03 -3.26429206e+02  1.70e-06 7.28e-12  9.03e-03     4s
  17   1.54743143e+03  2.01810748e+02  1.19e-06 7.34e-12  5.82e-03     4s
  18   1.39736546e+03  4.39436502e+02  8.50e-07 1.03e-11  4.14e-03     4s
  19   1.34051105e+03  5.58612871e+02  7.23e-07 1.20e-11  3.38e-03     4s
  20   1.26124555e+03  6.57007465e+02  5.52e-07 1.10e-11  2.61e-03     4s
  21   1.20609086e+03  8.03089158e+02  4.41e-07 4.87e-12  1.74e-03     4s
  22   1.14816492e+03  8.59230709e+02  3.24e-07 1.06e-11  1.25e-03     4s
  23   1.10324568e+03  8.86859981e+02  2.38e-07 1.00e-11  9.36e-04     4s
  24   1.07662455e+03  9.22683391e+02  1.81e-07 8.18e-12  6.66e-04     4s
  25   1.05960100e+03  9.40068304e+02  1.46e-07 8.32e-12  5.17e-04     5s
  26   1.03404910e+03  9.63151809e+02  9.36e-08 7.21e-12  3.07e-04     5s
  27   1.02323050e+03  9.71443128e+02  7.43e-08 5.48e-12  2.24e-04     5s
  28   1.01340781e+03  9.75566735e+02  5.40e-08 9.54e-12  1.64e-04     5s
  29   1.00451013e+03  9.78787448e+02  3.58e-08 9.26e-12  1.11e-04     5s
  30   1.00122776e+03  9.80910755e+02  2.92e-08 9.27e-12  8.79e-05     5s
  31   9.95890726e+02  9.82582250e+02  1.84e-08 1.15e-11  5.76e-05     5s
  32   9.93868562e+02  9.82897160e+02  1.44e-08 1.24e-11  4.74e-05     5s
  33   9.91328072e+02  9.84428853e+02  9.57e-09 7.26e-12  2.98e-05     5s
  34   9.90000650e+02  9.84890851e+02  7.01e-09 6.20e-12  2.21e-05     5s
  35   9.89058809e+02  9.85457891e+02  5.11e-09 7.34e-12  1.56e-05     5s
  36   9.88277915e+02  9.85978333e+02  3.73e-09 4.36e-12  9.94e-06     5s
  37   9.87431895e+02  9.86095630e+02  1.96e-09 5.06e-12  5.78e-06     5s
  38   9.87188919e+02  9.86237636e+02  1.46e-09 8.96e-12  4.11e-06     5s
  39   9.86849272e+02  9.86307443e+02  7.60e-10 5.71e-12  2.34e-06     5s
  40   9.86782952e+02  9.86342014e+02  6.26e-10 9.69e-12  1.91e-06     5s
  41   9.86656552e+02  9.86400484e+02  5.35e-10 9.16e-12  1.11e-06     5s
  42   9.86580269e+02  9.86417011e+02  5.77e-09 6.83e-12  7.06e-07     5s
  43   9.86561859e+02  9.86430213e+02  4.97e-09 6.88e-12  5.69e-07     5s
  44   9.86539149e+02  9.86435323e+02  1.62e-09 8.68e-12  4.49e-07     5s
  45   9.86536673e+02  9.86449372e+02  1.57e-09 8.34e-12  3.78e-07     6s
  46   9.86483510e+02  9.86463296e+02  6.97e-10 5.89e-12  8.74e-08     6s
  47   9.86475693e+02  9.86468156e+02  7.07e-10 7.49e-12  3.26e-08     6s
  48   9.86471553e+02  9.86469687e+02  5.59e-10 4.76e-12  8.07e-09     6s
  49   9.86470808e+02  9.86470518e+02  1.62e-10 5.98e-11  1.25e-09     6s
  50   9.86470665e+02  9.86470652e+02  2.25e-10 9.24e-12  5.81e-11     6s

Barrier solved model in 50 iterations and 5.81 seconds (4.22 work units)
Optimal objective 9.86470665e+02


Root crossover log...

   16569 DPushes remaining with DInf 3.2230563e-05                 6s
       0 DPushes remaining with DInf 0.0000000e+00                 6s

    1083 PPushes remaining with PInf 0.0000000e+00                 6s
       0 PPushes remaining with PInf 0.0000000e+00                 7s

  Push phase complete: Pinf 0.0000000e+00, Dinf 4.2215010e-11      7s


Root simplex log...

Iteration    Objective       Primal Inf.    Dual Inf.      Time
    7274    9.8647066e+02   0.000000e+00   0.000000e+00      7s
    7274    9.8647066e+02   0.000000e+00   0.000000e+00      7s

Root relaxation: objective 9.864707e+02, 7274 iterations, 4.72 seconds (3.06 work units)

    Nodes    |    Current Node    |     Objective Bounds      |     Work
 Expl Unexpl |  Obj  Depth IntInf | Incumbent    BestBd   Gap | It/Node Time

     0     0  986.47066    0   22          -  986.47066      -     -    8s
H    0     0                    8197.2658661  986.47066  88.0%     -   16s
H    0     0                    3585.9849297  986.47066  72.5%     -   25s
     0     0 1001.49521    0   20 3585.98493 1001.49521  72.1%     -   38s
H    0     0                    3425.2526810 1001.49521  70.8%     -   48s
     0     0 1002.08714    0   20 3425.25268 1002.08714  70.7%     -   50s
     0     0 1002.09717    0   20 3425.25268 1002.09717  70.7%     -   50s
     0     0 1002.72809    0   20 3425.25268 1002.72809  70.7%     -   53s
     0     0 1002.77718    0   21 3425.25268 1002.77718  70.7%     -   54s
     0     0 1002.78360    0   20 3425.25268 1002.78360  70.7%     -   55s
     0     0 1002.78368    0   20 3425.25268 1002.78368  70.7%     -   55s
     0     0 1003.00516    0   19 3425.25268 1003.00516  70.7%     -   58s
     0     0 1003.00857    0   19 3425.25268 1003.00857  70.7%     -   59s
     0     0 1003.05708    0   19 3425.25268 1003.05708  70.7%     -   61s
     0     0 1003.05761    0   19 3425.25268 1003.05761  70.7%     -   62s
     0     0 1003.06003    0   19 3425.25268 1003.06003  70.7%     -   66s
H    0     0                    1087.7922425 1003.06003  7.79%     - 1282s
     0     2 1003.06003    0   19 1087.79224 1003.06003  7.79%     - 1287s
     1     4 1028.34642    1   19 1087.79224 1003.08283  7.79%  9350 1310s
     3     8 1043.94964    2   20 1087.79224 1020.62703  6.17%  5097 1336s
     7    14     cutoff    3      1087.79224 1027.26595  5.56%  5785 1379s
    15    14 1051.70830    4   18 1087.79224 1033.98758  4.95%  5268 1488s
    29    15     cutoff    5      1087.79224 1036.27272  4.74%  7034 1604s
    43    20 1051.16748    6   13 1087.79224 1044.20409  4.01%  8168 1629s
    58    31 1053.71175    7   13 1087.79224 1049.55684  3.51%  6899 1742s
    78    45 1055.64852    8   13 1087.79224 1051.66921  3.32%  6062 1809s
   102    59 1056.99266    9   11 1087.79224 1055.73973  2.95%  5516 1821s
   126    60 1070.69850   10   10 1087.79224 1055.73973  2.95%  4778 1833s
   157    67 1074.83206   11    9 1087.79224 1055.73973  2.95%  4048 1917s
   188    77 1075.80380   12    7 1087.79224 1055.73973  2.95%  3832 1950s
   218    74 1083.33344   13    7 1087.79224 1055.73973  2.95%  3573 1972s
   258    50     cutoff   14      1087.79224 1055.73973  2.95%  3244 2002s
   312    38     cutoff   14      1087.79224 1064.01340  2.19%  2909 2045s
   359    31     cutoff   14      1087.79224 1064.75933  2.12%  2851 2087s
   405    35 1082.48996   12   10 1087.79224 1067.58682  1.86%  2774 2108s
   447    10     cutoff   13      1087.79224 1067.58682  1.86%  2667 2138s
   488     5     cutoff   18      1087.79224 1069.44429  1.69%  2542 2166s

Cutting planes:
  Gomory: 1
  Implied bound: 2
  MIR: 542
  Relax-and-lift: 21

Explored 499 nodes (1302076 simplex iterations) in 2166.53 seconds (1621.09 work units)
Thread count was 24 (of 32 available processors)

Solution count 4: 1087.79 3425.25 3585.98 8197.27 

Optimal solution found (tolerance 1.00e-02)
Best objective 1.087792242531e+03, best bound 1.077276102102e+03, gap 0.9667%

Gurobi 11.0.3 (win64) logging started Thu Sep 26 12:17:20 2024

Set parameter LogFile to value "C:\Users\ealvarezq\Desktop\E.Representative_days_based_on_Line_Benefits_OptModel\IEEE118_mod1_ByStages_nc170/openStarNet_IEEE118_mod1_ByStages_nc170.log"
Set parameter Method to value 2
Set parameter MIPFocus to value 1
Set parameter Presolve to value 2
Set parameter RINS to value 100
Set parameter MIPGap to value 0.01
Set parameter Threads to value 24
Set parameter TimeLimit to value 259200
Set parameter IterationLimit to value 760000000
Gurobi Optimizer version 11.0.3 build v11.0.3rc0 (win64 - Windows Server 2019.0 (17763.2))

CPU model: AMD Ryzen Threadripper PRO 3955WX 16-Cores, instruction set [SSE2|AVX|AVX2]
Thread count: 16 physical cores, 32 logical processors, using up to 24 threads

Optimize a model with 241573 rows, 178269 columns and 598678 nonzeros
Model fingerprint: 0x0c563e8b
Coefficient statistics:
  Matrix range     [3e-04, 9e+03]
  Objective range  [1e+00, 1e+00]
  Bounds range     [1e-04, 3e+00]
  RHS range        [2e-04, 2e+02]
Presolve removed 180042 rows and 78222 columns
Presolve time: 0.52s
Presolved: 61531 rows, 100725 columns, 241904 nonzeros

Ordering time: 0.03s

Barrier statistics:
 AA' NZ     : 2.042e+05
 Factor NZ  : 8.094e+05 (roughly 70 MB of memory)
 Factor Ops : 1.175e+07 (less than 1 second per iteration)
 Threads    : 24

                  Objective                Residual
Iter       Primal          Dual         Primal    Dual     Compl     Time
   0   1.43559276e+07 -2.05895661e+09  8.10e+01 1.90e+02  3.57e+04     1s
   1   1.66949098e+06 -5.91756567e+08  8.26e+00 3.18e-12  4.74e+03     1s
   2   3.82604481e+05 -1.05877107e+08  1.13e+00 4.09e-12  6.55e+02     1s
   3   1.81915319e+05 -1.32927007e+07  3.08e-02 2.96e-12  6.32e+01     1s
   4   1.04560572e+05 -1.72696168e+06  1.34e-03 4.09e-12  8.34e+00     1s
   5   6.11700610e+04 -5.73455447e+05  4.98e-04 1.25e-12  2.89e+00     1s
   6   2.89262059e+04 -1.67195940e+05  1.48e-04 7.02e-13  8.91e-01     1s
   7   1.57682495e+04 -5.66055079e+04  6.22e-05 4.30e-13  3.29e-01     1s
   8   8.98257910e+03 -1.88582362e+04  3.06e-05 1.09e-12  1.27e-01     1s
   9   5.80276970e+03 -7.56843979e+03  1.77e-05 5.07e-13  6.08e-02     1s
  10   3.14641455e+03 -1.83390538e+03  7.27e-06 6.67e-13  2.26e-02     1s
  11   2.28601636e+03 -5.97027943e+02  4.26e-06 7.71e-13  1.31e-02     1s
  12   1.74813024e+03  1.61066827e+02  2.25e-06 5.38e-13  7.21e-03     1s
  13   1.48413966e+03  5.20821423e+02  1.29e-06 9.45e-13  4.38e-03     1s
  14   1.32205786e+03  7.54763416e+02  7.27e-07 5.17e-13  2.58e-03     1s
  15   1.23611013e+03  8.70454439e+02  4.42e-07 8.96e-13  1.66e-03     1s
  16   1.18266126e+03  9.73113424e+02  2.75e-07 7.02e-13  9.52e-04     1s
  17   1.15654393e+03  1.01518424e+03  1.95e-07 6.44e-13  6.42e-04     2s
  18   1.12431557e+03  1.04245475e+03  9.89e-08 6.52e-13  3.72e-04     2s
  19   1.10825444e+03  1.06134553e+03  5.34e-08 5.91e-13  2.13e-04     2s
  20   1.10136021e+03  1.07448462e+03  3.48e-08 4.77e-13  1.22e-04     2s
  21   1.09437137e+03  1.08230901e+03  1.64e-08 5.95e-13  5.48e-05     2s
  22   1.09010544e+03  1.08527417e+03  5.48e-09 7.00e-13  2.20e-05     2s
  23   1.08894874e+03  1.08666653e+03  2.64e-09 4.54e-13  1.04e-05     2s
  24   1.08822755e+03  1.08726261e+03  9.58e-10 6.08e-13  4.38e-06     2s
  25   1.08795575e+03  1.08760531e+03  3.34e-10 7.84e-13  1.59e-06     2s
  26   1.08789486e+03  1.08771452e+03  2.06e-10 6.96e-13  8.19e-07     2s
  27   1.08780795e+03  1.08774027e+03  1.77e-10 6.34e-13  3.08e-07     2s
  28   1.08779793e+03  1.08778249e+03  1.92e-09 5.40e-13  7.02e-08     2s
  29   1.08779283e+03  1.08779148e+03  7.42e-10 7.07e-13  6.16e-09     2s
  30   1.08779228e+03  1.08779220e+03  1.14e-09 6.70e-13  3.98e-10     2s
  31   1.08779224e+03  1.08779224e+03  4.44e-10 8.55e-13  7.72e-12     2s

Barrier solved model in 31 iterations and 1.94 seconds (1.28 work units)
Optimal objective 1.08779224e+03

Crossover log...

   17415 DPushes remaining with DInf 0.0000000e+00                 2s
       0 DPushes remaining with DInf 0.0000000e+00                 2s

     650 PPushes remaining with PInf 0.0000000e+00                 2s
       0 PPushes remaining with PInf 0.0000000e+00                 2s

  Push phase complete: Pinf 0.0000000e+00, Dinf 2.1435855e-12      2s

Extra simplex iterations after uncrush: 2
Iteration    Objective       Primal Inf.    Dual Inf.      Time
    7349    1.0877922e+03   0.000000e+00   0.000000e+00      3s

Solved in 7349 iterations and 2.82 seconds (1.89 work units)
Optimal objective  1.087792243e+03

Gurobi 11.0.0 (linux64) logging started Mon Nov  4 17:05:12 2024

Set parameter LogFile to value "/lustre1/scratch/348/vsc34888/JointResearch/05.Models/06.Benchmarking/E.Representative_days_based_on_Line_Benefits_OptModel/IEEE118_mod1_ByStages_nc170/openStarNet_IEEE118_mod1_ByStages_nc170.log"
Set parameter Method to value 2
Set parameter MIPFocus to value 1
Set parameter Presolve to value 2
Set parameter RINS to value 100
Set parameter MIPGap to value 0.01
Set parameter Threads to value 36
Set parameter TimeLimit to value 259200
Set parameter IterationLimit to value 760000000
Gurobi Optimizer version 11.0.0 build v11.0.0rc2 (linux64 - "Rocky Linux 8.9 (Green Obsidian)")

CPU model: Intel(R) Xeon(R) Gold 6240 CPU @ 2.60GHz, instruction set [SSE2|AVX|AVX2|AVX512]
Thread count: 36 physical cores, 36 logical processors, using up to 36 threads

Optimize a model with 242994 rows, 179333 columns and 625453 nonzeros
Model fingerprint: 0x1cccf068
Variable types: 179299 continuous, 34 integer (34 binary)
Coefficient statistics:
  Matrix range     [3e-04, 9e+03]
  Objective range  [1e+00, 1e+00]
  Bounds range     [1e-04, 3e+00]
  RHS range        [2e-04, 3e+00]
Presolve removed 164237 rows and 82418 columns
Presolve time: 1.17s
Presolved: 78757 rows, 96915 columns, 287904 nonzeros
Variable types: 96881 continuous, 34 integer (34 binary)
Root relaxation presolved: 78757 rows, 96915 columns, 287904 nonzeros

Root barrier log...

Ordering time: 0.03s

Barrier statistics:
 Dense cols : 34
 AA' NZ     : 3.564e+05
 Factor NZ  : 1.413e+06 (roughly 80 MB of memory)
 Factor Ops : 3.142e+07 (less than 1 second per iteration)
 Threads    : 35

                  Objective                Residual
Iter       Primal          Dual         Primal    Dual     Compl     Time
   0   8.87612665e+06 -2.53802271e+09  1.55e+01 2.15e+03  4.77e+04     2s
   1   2.12601482e+06 -9.64335770e+08  3.45e+00 5.28e-08  9.88e+03     2s
   2   5.27671379e+05 -2.45461965e+08  5.94e-01 9.23e-08  1.64e+03     2s
   3   2.88161757e+05 -7.11553523e+07  1.25e-01 9.70e-09  3.71e+02     2s
   4   1.98055424e+05 -1.02019922e+07  1.11e-02 1.94e-09  4.61e+01     2s
   5   1.37178508e+05 -4.60167725e+06  2.87e-03 8.50e-10  2.06e+01     2s
   6   8.94617217e+04 -1.51972090e+06  1.04e-03 2.54e-10  6.94e+00     2s
   7   5.30028211e+04 -7.05370293e+05  4.58e-04 1.16e-10  3.27e+00     2s
   8   3.30431590e+04 -2.12465512e+05  2.01e-04 2.93e-11  1.06e+00     2s
   9   1.59658064e+04 -5.48652895e+04  6.60e-05 7.28e-12  3.05e-01     2s
  10   8.61326052e+03 -2.57786857e+04  2.90e-05 3.64e-12  1.48e-01     2s
  11   5.84828800e+03 -7.94727024e+03  1.78e-05 7.28e-12  5.93e-02     2s
  12   3.81504628e+03 -4.51900061e+03  1.01e-05 3.64e-12  3.58e-02     2s
  13   3.09262550e+03 -2.64713379e+03  7.48e-06 3.64e-12  2.47e-02     2s
  14   2.24396587e+03 -1.40837596e+03  4.46e-06 7.28e-12  1.57e-02     2s
  15   1.81659219e+03 -4.42767184e+02  2.98e-06 7.28e-12  9.72e-03     2s
  16   1.51024982e+03  2.11175935e+02  2.00e-06 3.64e-12  5.59e-03     2s
  17   1.27800938e+03  4.60984903e+02  1.28e-06 7.28e-12  3.51e-03     2s
  18   1.13648081e+03  6.25155086e+02  8.37e-07 7.28e-12  2.20e-03     3s
  19   1.08809008e+03  6.65584973e+02  6.88e-07 3.64e-12  1.82e-03     3s
  20   1.03236818e+03  7.10932546e+02  5.19e-07 7.28e-12  1.38e-03     3s
  21   9.85625450e+02  7.46582578e+02  3.79e-07 7.28e-12  1.03e-03     3s
  22   9.48473556e+02  7.90633141e+02  2.67e-07 3.64e-12  6.79e-04     3s
  23   9.15618882e+02  8.13463524e+02  1.78e-07 7.28e-12  4.39e-04     3s
  24   8.99474889e+02  8.32166959e+02  1.30e-07 7.28e-12  2.89e-04     3s
  25   8.82088286e+02  8.37896057e+02  8.06e-08 5.45e-12  1.90e-04     3s
  26   8.72514707e+02  8.42485294e+02  5.35e-08 7.28e-12  1.29e-04     3s
  27   8.66379528e+02  8.45517829e+02  3.60e-08 7.28e-12  8.97e-05     3s
  28   8.60482317e+02  8.49660331e+02  2.00e-08 1.46e-11  4.65e-05     3s
  29   8.57840037e+02  8.51119466e+02  1.28e-08 7.28e-12  2.89e-05     3s
  30   8.55443584e+02  8.52015758e+02  6.23e-09 4.69e-12  1.47e-05     3s
  31   8.54457628e+02  8.52509409e+02  3.63e-09 2.10e-12  8.38e-06     3s
  32   8.54045421e+02  8.52810508e+02  2.57e-09 7.81e-12  5.31e-06     3s
  33   8.53489203e+02  8.52940604e+02  2.72e-09 7.28e-12  2.36e-06     3s
  34   8.53286946e+02  8.52984703e+02  1.06e-09 7.28e-12  1.30e-06     3s
  35   8.53145428e+02  8.53006973e+02  3.79e-10 7.28e-12  5.96e-07     3s
  36   8.53116731e+02  8.53014689e+02  3.35e-10 7.28e-12  4.39e-07     3s
  37   8.53063743e+02  8.53021809e+02  7.16e-10 1.46e-11  1.80e-07     3s
  38   8.53034582e+02  8.53028109e+02  8.80e-10 7.28e-12  2.78e-08     3s
  39   8.53031827e+02  8.53030976e+02  8.71e-10 7.28e-12  3.66e-09     3s
  40   8.53031512e+02  8.53031361e+02  4.15e-10 7.28e-12  6.51e-10     3s
  41   8.53031481e+02  8.53031475e+02  1.43e-10 3.64e-12  2.47e-11     4s

Barrier solved model in 41 iterations and 3.58 seconds (3.61 work units)
Optimal objective 8.53031481e+02


Root relaxation: objective 8.530315e+02, 7321 iterations, 3.55 seconds (2.95 work units)
Total elapsed time = 5.69s (DegenMoves)

    Nodes    |    Current Node    |     Objective Bounds      |     Work
 Expl Unexpl |  Obj  Depth IntInf | Incumbent    BestBd   Gap | It/Node Time

     0     0  853.03148    0   23          -  853.03148      -     -    5s
H    0     0                    6746.0692013  853.03148  87.4%     -   11s
H    0     0                    2823.3978908  853.03148  69.8%     -   17s
     0     0  867.33589    0   22 2823.39789  867.33589  69.3%     -   25s
H    0     0                    2534.8510087  867.33589  65.8%     -   33s
     0     0  867.83984    0   22 2534.85101  867.83984  65.8%     -   34s
     0     0  867.84174    0   22 2534.85101  867.84174  65.8%     -   34s
     0     0  867.84191    0   22 2534.85101  867.84191  65.8%     -   34s
     0     0  868.96364    0   21 2534.85101  868.96364  65.7%     -   37s
     0     0  868.97916    0   21 2534.85101  868.97916  65.7%     -   38s
     0     0  868.97953    0   21 2534.85101  868.97953  65.7%     -   38s
     0     0  869.08129    0   22 2534.85101  869.08129  65.7%     -   43s
     0     0  869.08954    0   22 2534.85101  869.08954  65.7%     -   43s
     0     0  869.10404    0   21 2534.85101  869.10404  65.7%     -   47s
     0     0  869.10404    0   21 2534.85101  869.10404  65.7%     -   47s
     0     0  869.10546    0   21 2534.85101  869.10546  65.7%     -   51s
H    0     0                     958.1777329  869.10546  9.30%     -  644s
     0     2  869.10546    0   21  958.17773  869.10546  9.30%     -  646s
     1     4  897.41189    1   21  958.17773  869.10546  9.30%  9016  659s
     3     8  910.41465    2   20  958.17773  886.86921  7.44%  6041  681s
     7    12     cutoff    3       958.17773  894.26264  6.67%  7114  715s
    15    20  919.94878    4   17  958.17773  900.46572  6.02%  5917  729s
    27    24  927.29371    5   16  958.17773  903.05963  5.75%  4255  767s
    47    30     cutoff    6       958.17773  909.11101  5.12%  5739  829s
    71    38  925.47349    7   14  958.17773  916.99708  4.30%  5940  868s
   101    38  928.07048    8   13  958.17773  920.70039  3.91%  5819  889s
   109    38     cutoff    8       958.17773  923.12299  3.66%  5703  890s
   137    42  929.66415    9   12  958.17773  923.12299  3.66%  4945  909s
   173    45  943.29748   10   11  958.17773  929.66431  2.98%  4394  920s
   209    39     cutoff   11       958.17773  934.93516  2.43%  3935  938s
   258    22  948.18841   13    8  958.17773  939.79153  1.92%  3528  962s
   303    12     cutoff   14       958.17773  945.84418  1.29%  3340  982s

Cutting planes:
  Gomory: 1
  Implied bound: 1
  MIR: 538
  Flow cover: 1
  Relax-and-lift: 17

Explored 329 nodes (1090030 simplex iterations) in 982.93 seconds (1274.30 work units)
Thread count was 36 (of 36 available processors)

Solution count 4: 958.178 2534.85 2823.4 6746.07 

Optimal solution found (tolerance 1.00e-02)
Best objective 9.581777328535e+02, best bound 9.508191177839e+02, gap 0.7680%

Gurobi 11.0.0 (linux64) logging started Mon Nov  4 17:22:27 2024

Set parameter LogFile to value "/lustre1/scratch/348/vsc34888/JointResearch/05.Models/06.Benchmarking/E.Representative_days_based_on_Line_Benefits_OptModel/IEEE118_mod1_ByStages_nc170/openStarNet_IEEE118_mod1_ByStages_nc170.log"
Set parameter Method to value 2
Set parameter MIPFocus to value 1
Set parameter Presolve to value 2
Set parameter RINS to value 100
Set parameter MIPGap to value 0.01
Set parameter Threads to value 36
Set parameter TimeLimit to value 259200
Set parameter IterationLimit to value 760000000
Gurobi Optimizer version 11.0.0 build v11.0.0rc2 (linux64 - "Rocky Linux 8.9 (Green Obsidian)")

CPU model: Intel(R) Xeon(R) Gold 6240 CPU @ 2.60GHz, instruction set [SSE2|AVX|AVX2|AVX512]
Thread count: 36 physical cores, 36 logical processors, using up to 36 threads

Optimize a model with 242994 rows, 179299 columns and 602163 nonzeros
Model fingerprint: 0x7aaad90b
Coefficient statistics:
  Matrix range     [3e-04, 9e+03]
  Objective range  [1e+00, 1e+00]
  Bounds range     [1e-04, 3e+00]
  RHS range        [2e-04, 2e+02]
Presolve removed 181122 rows and 78576 columns
Presolve time: 0.35s
Presolved: 61872 rows, 101243 columns, 243300 nonzeros

Ordering time: 0.02s

Barrier statistics:
 AA' NZ     : 2.094e+05
 Factor NZ  : 8.119e+05 (roughly 70 MB of memory)
 Factor Ops : 1.167e+07 (less than 1 second per iteration)
 Threads    : 36

                  Objective                Residual
Iter       Primal          Dual         Primal    Dual     Compl     Time
   0   1.44626916e+07 -1.45546286e+09  9.06e+01 1.30e+02  2.61e+04     0s
   1   1.62820840e+06 -4.43235662e+08  9.02e+00 2.82e-12  3.49e+03     0s
   2   4.23832908e+05 -7.74033733e+07  1.57e+00 2.84e-12  5.13e+02     1s
   3   1.85184591e+05 -1.13377072e+07  6.69e-02 3.64e-12  5.53e+01     1s
   4   1.05825950e+05 -1.66822320e+06  6.04e-03 2.05e-12  8.08e+00     1s
   5   6.55181222e+04 -4.49535107e+05  2.31e-03 7.96e-13  2.33e+00     1s
   6   3.34569906e+04 -1.46785517e+05  8.77e-04 5.68e-13  8.16e-01     1s
   7   1.70977360e+04 -4.59434968e+04  3.58e-04 9.09e-13  2.85e-01     1s
   8   1.01911454e+04 -2.07139061e+04  1.88e-04 4.55e-13  1.40e-01     1s
   9   5.97680289e+03 -9.02810363e+03  9.85e-05 4.55e-13  6.78e-02     1s
  10   4.26113024e+03 -4.21225598e+03  6.27e-05 4.55e-13  3.83e-02     1s
  11   2.81373268e+03 -1.49018576e+03  3.36e-05 4.55e-13  1.95e-02     1s
  12   1.85262328e+03 -1.70372472e+02  1.55e-05 4.55e-13  9.15e-03     1s
  13   1.43199499e+03  4.01364368e+02  7.78e-06 4.55e-13  4.66e-03     1s
  14   1.23207360e+03  6.30238560e+02  4.31e-06 4.55e-13  2.72e-03     1s
  15   1.13959033e+03  7.52098840e+02  2.77e-06 4.55e-13  1.75e-03     1s
  16   1.08064600e+03  8.16464384e+02  1.82e-06 4.55e-13  1.19e-03     1s
  17   1.03940547e+03  8.84622793e+02  1.18e-06 4.55e-13  7.00e-04     1s
  18   1.00016478e+03  9.15584087e+02  5.87e-07 4.55e-13  3.82e-04     1s
  19   9.86803048e+02  9.32970052e+02  3.93e-07 4.55e-13  2.43e-04     1s
  20   9.72243622e+02  9.43024867e+02  1.89e-07 4.55e-13  1.32e-04     1s
  21   9.62922398e+02  9.52783054e+02  5.89e-08 9.09e-13  4.58e-05     1s
  22   9.60769939e+02  9.55428642e+02  3.14e-08 4.55e-13  2.41e-05     1s
  23   9.59518582e+02  9.56893238e+02  1.59e-08 4.55e-13  1.19e-05     1s
  24   9.58811790e+02  9.57544574e+02  7.33e-09 4.55e-13  5.73e-06     1s
  25   9.58504193e+02  9.57914047e+02  3.70e-09 4.55e-13  2.67e-06     1s
  26   9.58297341e+02  9.58042235e+02  1.31e-09 9.09e-13  1.15e-06     1s
  27   9.58188273e+02  9.58151731e+02  1.18e-09 4.55e-13  1.65e-07     1s
  28   9.58180520e+02  9.58169942e+02  1.03e-09 4.55e-13  4.78e-08     1s
  29   9.58177903e+02  9.58177388e+02  1.63e-09 6.82e-13  2.33e-09     1s
  30   9.58177759e+02  9.58177670e+02  2.25e-09 4.55e-13  4.03e-10     1s
  31   9.58177735e+02  9.58177732e+02  3.15e-10 9.09e-13  1.25e-11     1s

Barrier solved model in 31 iterations and 1.32 seconds (1.27 work units)
Optimal objective 9.58177735e+02

Crossover log...

   17672 DPushes remaining with DInf 0.0000000e+00                 1s
       0 DPushes remaining with DInf 0.0000000e+00                 2s

     992 PPushes remaining with PInf 0.0000000e+00                 2s
       0 PPushes remaining with PInf 0.0000000e+00                 2s

  Push phase complete: Pinf 0.0000000e+00, Dinf 2.1443100e-12      2s

Iteration    Objective       Primal Inf.    Dual Inf.      Time
    6533    9.5817773e+02   0.000000e+00   0.000000e+00      2s

Solved in 6533 iterations and 2.07 seconds (1.59 work units)
Optimal objective  9.581777329e+02
